Reading model...
...model read.
creating competitive generators file...
...competitive generators recorded.
Loading data...
.. real-time data read.
Compiling instance...
...instance created.
Creating Offer Mitigation (model will solve as dispatch if TRUE)...
NOTE: storage offers will not be mitigated
...storage offer mitigation file created
Converting model to MPEC...
...converted
NOTE: initial MIP solve with only storage competitive to get feasible solution
Solving...

Welcome to IBM(R) ILOG(R) CPLEX(R) Interactive Optimizer 12.9.0.0
  with Simplex, Mixed Integer & Barrier Optimizers
5725-A06 5725-A29 5724-Y48 5724-Y49 5724-Y54 5724-Y55 5655-Y21
Copyright IBM Corp. 1988, 2019.  All Rights Reserved.

Type 'help' for a list of available commands.
Type 'help' followed by a command name for more
information on commands.

CPLEX> Logfile 'cplex.log' closed.
Logfile 'C:\Users\llavin\Desktop\test85\logs\tmpn19vzf36.cplex.log' open.
CPLEX> New value for parallel optimization mode: -1
CPLEX> New value for mixed integer optimality gap tolerance: 0.001
CPLEX> New value for deterministic time limit in ticks: 100000
CPLEX> Problem 'C:\Users\llavin\Desktop\test85\logs\tmpmm_o0xhw.pyomo.lp' read.
Read time = 0.56 sec. (27.85 ticks)
CPLEX> Problem name         : C:\Users\llavin\Desktop\test85\logs\tmpmm_o0xhw.pyomo.lp
Objective sense      : Maximize
Variables            :  107779  [Nneg: 1,  Box: 44054,  Free: 8928,
                                 Binary: 54796]
Objective nonzeros   :   17650
Linear constraints   :  246995  [Less: 82866,  Greater: 118424,  Equal: 45705]
  Nonzeros           :  581053
  RHS nonzeros       :  134863

Variables            : Min LB: -5000.000        Max UB: 1000000.       
Objective nonzeros   : Min   : 0.008333333      Max   : 2500.000       
Linear constraints   :
  Nonzeros           : Min   : 0.008333333      Max   : 1000000.       
  RHS nonzeros       : Min   : 0.008333333      Max   : 1000000.       
CPLEX> CPXPARAM_Parallel                                -1
CPXPARAM_DetTimeLimit                            100000
CPXPARAM_MIP_Tolerances_MIPGap                   0.001
Tried aggregator 3 times.
MIP Presolve eliminated 180549 rows and 40445 columns.
MIP Presolve added 6272 rows and 0 columns.
MIP Presolve modified 49304 coefficients.
Aggregator did 25801 substitutions.
Reduced MIP has 46917 rows, 40076 columns, and 129840 nonzeros.
Reduced MIP has 15769 binaries, 0 generals, 0 SOSs, and 0 indicators.
Presolve time = 0.59 sec. (332.87 ticks)
Probing fixed 721 vars, tightened 7280 bounds.
Probing time = 0.38 sec. (13.56 ticks)
Tried aggregator 2 times.
MIP Presolve eliminated 1633 rows and 1443 columns.
MIP Presolve modified 5710 coefficients.
Aggregator did 96 substitutions.
Reduced MIP has 45188 rows, 38537 columns, and 124838 nonzeros.
Reduced MIP has 15048 binaries, 0 generals, 0 SOSs, and 0 indicators.
Presolve time = 0.23 sec. (219.70 ticks)
Probing fixed 0 vars, tightened 310 bounds.
Probing time = 0.50 sec. (14.22 ticks)
Clique table members: 81465.
MIP emphasis: balance optimality and feasibility.
MIP search method: dynamic search.
Parallel mode: opportunistic, using up to 32 threads.
Root relaxation solution time = 1.05 sec. (1874.71 ticks)

        Nodes                                         Cuts/
   Node  Left     Objective  IInf  Best Integer    Best Bound    ItCnt     Gap

      0     0      355.0933   114                    355.0933    10374         
      0     0      355.0933    24                    Cuts: 52    10396         
      0     0      354.1156    25                    Cuts: 43    10412         
      0     0      342.8330    36                    Cuts: 30    10456         
      0     0      337.9028    39                    Cuts: 33    10478         
      0     0      336.9391    38                    Cuts: 18    10490         
      0     0      336.4284    39                    Cuts: 10    10499         
      0     0      336.2816    39                     Cuts: 5    10503         
      0     0      336.2070    39                 Flowcuts: 3    10505         
      0    31     -128.5880    18                    129.4885    10911         
Elapsed time = 11.56 sec. (7723.39 ticks, tree = 0.02 MB, solutions = 0)
    208    66       26.9276     3                     77.5889    11173         
    551    85    infeasible                           77.5889    11748         
*   694   171      integral     0       51.8996       77.5889    12280   49.50%
    864   155    -1106.3474     8       51.8996       77.5889    12250   49.50%
   1026   339     -404.9120     4       51.8996       61.5794    13559   18.65%

Cover cuts applied:  7
Implied bound cuts applied:  4
Flow cuts applied:  39
Mixed integer rounding cuts applied:  21
Gomory fractional cuts applied:  7

Root node processing (before b&c):
  Real time             =    9.14 sec. (7678.59 ticks)
Parallel b&c, 32 threads:
  Real time             =    7.00 sec. (1050.45 ticks)
  Sync time (average)   =    1.16 sec.
  Wait time (average)   =    0.00 sec.
                          ------------
Total (root+branch&cut) =   16.14 sec. (8729.03 ticks)

Solution pool: 1 solution saved.

MIP - Integer optimal solution:  Objective =  5.1899591492e+01
Solution time =   16.17 sec.  Iterations = 23418  Nodes = 1029
Deterministic time = 8729.34 ticks  (539.81 ticks/sec)

CPLEX> Incumbent solution written to file 'C:\Users\llavin\Desktop\test85\logs\tmp4vx8wox4.cplex.sol'.
CPLEX> NOTE: no warmstart specified for MIP iteration, default behavior is true
NOTE: resolving with all competitive generators using storage-only solution to warmstart
Solving...

Welcome to IBM(R) ILOG(R) CPLEX(R) Interactive Optimizer 12.9.0.0
  with Simplex, Mixed Integer & Barrier Optimizers
5725-A06 5725-A29 5724-Y48 5724-Y49 5724-Y54 5724-Y55 5655-Y21
Copyright IBM Corp. 1988, 2019.  All Rights Reserved.

Type 'help' for a list of available commands.
Type 'help' followed by a command name for more
information on commands.

CPLEX> Logfile 'cplex.log' closed.
Logfile 'C:\Users\llavin\Desktop\test85\logs\tmp98a99ycs.cplex.log' open.
CPLEX> New value for parallel optimization mode: -1
CPLEX> New value for mixed integer optimality gap tolerance: 0.001
CPLEX> New value for deterministic time limit in ticks: 100000
CPLEX> Problem 'C:\Users\llavin\Desktop\test85\logs\tmped_6x56y.pyomo.lp' read.
Read time = 0.50 sec. (27.89 ticks)
CPLEX> MIP start file 'C:\Users\llavin\Desktop\test85\logs\tmp767m5sl_.cplex.mst' read.
CPLEX> Problem name         : C:\Users\llavin\Desktop\test85\logs\tmped_6x56y.pyomo.lp
Objective sense      : Maximize
Variables            :  109219  [Nneg: 1,  Box: 45494,  Free: 8928,
                                 Binary: 54796]
Objective nonzeros   :   19042
Linear constraints   :  246995  [Less: 82866,  Greater: 118424,  Equal: 45705]
  Nonzeros           :  581053
  RHS nonzeros       :  134863

Variables            : Min LB: -5000.000        Max UB: 1000000.       
Objective nonzeros   : Min   : 0.008333333      Max   : 2500.000       
Linear constraints   :
  Nonzeros           : Min   : 0.008333333      Max   : 1000000.       
  RHS nonzeros       : Min   : 0.008333333      Max   : 1000000.       
CPLEX> CPXPARAM_Parallel                                -1
CPXPARAM_DetTimeLimit                            100000
CPXPARAM_MIP_Tolerances_MIPGap                   0.001
1 of 1 MIP starts provided solutions.
MIP start 'm1' defined initial solution with objective 51.8996.
Tried aggregator 3 times.
MIP Presolve eliminated 180549 rows and 41885 columns.
MIP Presolve added 6272 rows and 0 columns.
MIP Presolve modified 49304 coefficients.
Aggregator did 25801 substitutions.
Reduced MIP has 46917 rows, 40076 columns, and 129840 nonzeros.
Reduced MIP has 15769 binaries, 0 generals, 0 SOSs, and 0 indicators.
Presolve time = 0.58 sec. (333.57 ticks)
Probing fixed 721 vars, tightened 7280 bounds.
Probing time = 0.36 sec. (13.56 ticks)
Tried aggregator 2 times.
MIP Presolve eliminated 1633 rows and 1443 columns.
MIP Presolve modified 5710 coefficients.
Aggregator did 96 substitutions.
Reduced MIP has 45188 rows, 38537 columns, and 124838 nonzeros.
Reduced MIP has 15048 binaries, 0 generals, 0 SOSs, and 0 indicators.
Presolve time = 0.23 sec. (219.70 ticks)
Probing fixed 0 vars, tightened 321 bounds.
Probing time = 0.50 sec. (14.53 ticks)
Clique table members: 81233.
MIP emphasis: balance optimality and feasibility.
MIP search method: dynamic search.
Parallel mode: opportunistic, using up to 32 threads.
Root relaxation solution time = 1.25 sec. (2166.04 ticks)

        Nodes                                         Cuts/
   Node  Left     Objective  IInf  Best Integer    Best Bound    ItCnt     Gap

*     0+    0                           51.8996   1.40591e+07              --- 
      0     0    46138.4579   865       51.8996    46138.4579    13320     --- 
      0     0    45208.8382   942       51.8996     Cuts: 655    14559     --- 
      0     0    44282.7588   895       51.8996     Cuts: 860    15303     --- 
      0     0    44202.9940   943       51.8996     Cuts: 216    15553     --- 
      0     0    44201.2269   944       51.8996      Cuts: 80    15594     --- 
      0     0    44197.3607   944       51.8996      Cuts: 63    15628     --- 
      0     0    44194.6078   952       51.8996      Cuts: 46    15659     --- 
      0     0    44190.1068   955       51.8996      Cuts: 25    15682     --- 
      0     0    44187.4777   947       51.8996      Cuts: 23    15699     --- 
      0     0    44187.4721   948       51.8996      Cuts: 17    15709     --- 
      0    16    42860.6288   894       51.8996      Cuts: 17    16030     --- 
Elapsed time = 13.77 sec. (7521.19 ticks, tree = 0.02 MB, solutions = 1)
    268   129    42849.3584   853       51.8996    43890.3275    18353     --- 
    539   145    42677.7107   541       51.8996    43890.3275    18578     --- 
    774   826    39536.1784   652       51.8996    43890.3275    37836     --- 
   1038   614    35474.7075   625       51.8996    43890.3275    30365     --- 
   1314   952        cutoff             51.8996    43890.3275    55000     --- 
   1570   943    33031.1790   382       51.8996    43890.3275    49029     --- 
   1728  1075    31707.1196   465       51.8996    43890.3275    67757     --- 
   1863  1143    31071.1504   450       51.8996    43890.3275    76935     --- 
   2089  1153    31160.0114   449       51.8996    43890.3275    77000     --- 
   3517  1984    30178.7836   343       51.8996    43890.3275    93059     --- 
Elapsed time = 34.59 sec. (10629.26 ticks, tree = 74.88 MB, solutions = 1)
   5060  3692    27968.5715   247       51.8996    43890.3275   116160     --- 
   5822  4314        cutoff             51.8996    43890.3275   127217     --- 
   5834  4547    infeasible             51.8996    28532.1729   172612     --- 
   6108    49        cutoff             51.8996     1364.9374   181353     --- 
   6596   102      388.2588    41       51.8996     1364.9374   182582     --- 
   7231    60  -1.00000e+75    36       51.8996     1309.3819   181053     --- 
   7941   130      152.3487    37       51.8996     1309.3819   182354     --- 
   8838    86      328.8238    33       51.8996     1309.3819   181160     --- 
   9894   188       54.2920    48       51.8996     1309.3819   183256     --- 
  11612  1309        cutoff             51.8996      143.0150   199103  175.56%
Elapsed time = 158.52 sec. (45110.89 ticks, tree = 15.53 MB, solutions = 1)
  13183   137    infeasible             51.8996      141.4945   224608  172.63%
  13903   944        cutoff             51.8996      141.4945   192816  172.63%
  14192   332       88.4209    39       51.8996      141.4945   185801  172.63%
  14405   589        cutoff             51.8996      141.4945   188826  172.63%
  14477  1381        cutoff             51.8996      141.4945   201960  172.63%
  14538   760        cutoff             51.8996      141.4945   219894  172.63%

GUB cover cuts applied:  6
Clique cuts applied:  9
Cover cuts applied:  11
Implied bound cuts applied:  54
Flow cuts applied:  1122
Mixed integer rounding cuts applied:  334
Lift and project cuts applied:  28
Gomory fractional cuts applied:  6

Root node processing (before b&c):
  Real time             =    9.63 sec. (7409.01 ticks)
Parallel b&c, 32 threads:
  Real time             =  149.36 sec. (44066.60 ticks)
  Sync time (average)   =   19.84 sec.
  Wait time (average)   =    0.32 sec.
                          ------------
Total (root+branch&cut) =  158.99 sec. (51475.61 ticks)

Solution pool: 1 solution saved.

MIP - Integer optimal solution:  Objective =  5.1899591489e+01
Solution time =  159.01 sec.  Iterations = 233625  Nodes = 14601
Deterministic time = 51475.92 ticks  (323.72 ticks/sec)

CPLEX> Incumbent solution written to file 'C:\Users\llavin\Desktop\test85\logs\tmpam7pyd_1.cplex.sol'.
CPLEX> Exporting results... 
